Traveling Salesman Problem/TSP_generados/Aleatorio1621103315_9.tsp
NAME: Aleatorio1621103315_9.tsp
COMMENT: Randomly generated scenario
TYPE: TSP
DIMENSION: 9
EDGE_WEIGHT_TYPE: ATT
NODE_COORD_SECTION
1 8.15 27.16
2 43.27 28.11
3 3.19 16.06
4 23.61 7.86
5 15.12 45.63
6 25.97 0.24
7 4.33 10.41
8 3.27 30.13
9 48.92 15.21
