Traveling Salesman Problem/TSP_generados/Aleatorio1621103315_9.opt.tour
NAME: Aleatorio1621103315_9.opt.tour
COMMENT: Optimal solution for Aleatorio1621103315_9 (145.2108389027875)
TYPE: TOUR
DIMENSION: 9
TOUR_SECTION
1 3 7 4 6 9 2 5 8
-1
EOF
